17	4
26	34	22	24	
0	0	0	0	0	3	2	3	4	
10	7	0	1	0	3	5	6	9	
9	9	4	6	7	3	7	8	9	
2	2	0	9	3	3	7	17	17	
3	0	2	0	0	3	10	13	15	
200	0	1	10	9	3	7	11	13	
125	7	0	10	4	3	17	17	17	
125	0	3	3	1	3	10	11	13	
175	0	2	1	0	2	10	12	
150	8	5	1	0	2	16	17	
125	3	0	0	8	3	12	14	17	
175	0	8	9	7	3	17	17	17	
2	6	0	9	2	2	17	17	
4	4	6	0	10	2	15	17	
10	6	3	4	6	3	16	17	17	
3	4	9	7	1	2	17	17	
0	0	0	0	0	0	
